p cnf 91 377
3 4 23 -50 -51 -68 0
7 9 46 -47 -48 64 0
7 9 -47 -48 55 64 0
-8 42 45 46 -60 -87 0
13 57 58 -73 78 -79 0
4 19 23 -50 -51 68 0
-3 -16 -19 -23 67 0
-4 -19 -61 78 84 0
11 -14 26 -31 78 0
-15 -31 57 58 -76 0
-16 -19 -23 67 91 0
-17 -18 -19 -39 -40 0
-30 -31 57 58 -73 0
3 4 -50 -68 -91 0
7 9 45 -48 55 0
8 -45 -48 55 64 0
12 13 -14 58 -78 0
2 3 56 -62 0
2 -35 -61 65 0
3 4 16 51 0
3 4 16 -67 0
-3 -16 -50 68 0
-3 -16 67 68 0
-3 -51 67 -68 0
4 5 78 -84 0
4 -78 79 -84 0
-5 -63 82 84 0
-6 -35 36 62 0
7 40 42 45 0
-7 -40 43 87 0
8 9 55 64 0
-8 -42 46 83 0
10 11 12 -27 0
10 20 22 -69 0
10 21 22 -69 0
10 21 22 -77 0
10 21 -72 -77 0
10 -21 22 -77 0
11 -19 -27 -31 0
12 13 -73 79 0
12 -30 58 -73 0
13 49 67 -68 0
17 19 39 47 0
17 44 -71 77 0
17 -44 -72 -77 0
19 23 -30 -80 0
-19 -39 -40 -43 0
-19 51 -81 -85 0
20 22 -69 88 0
20 22 -77 88 0
20 -38 41 -70 0
20 41 -54 -70 0
-20 -22 -53 70 0
21 22 -69 70 0
21 22 -77 88 0
21 -69 -72 88 0
-21 -69 -72 88 0
-23 25 65 80 0
-23 -28 -33 -56 0
-23 -81 85 91 0
30 57 -73 78 0
-31 57 -78 -79 0
-32 56 59 -61 0
49 67 68 91 0
3 -16 -50 -91 0
-3 -19 -23 89 0
4 19 51 -68 0
7 9 45 55 0
8 -45 -48 55 0
10 11 26 -28 0
-16 68 -89 91 0
-17 -44 -72 -77 0
19 23 -65 -74 0
-19 -81 85 91 0
20 -72 -77 88 0
-22 -41 -53 70 0
-35 -61 -74 82 0
38 -47 64 81 0
-40 46 -60 -64 0
49 67 85 91 0
52 -61 -78 -84 0
-53 70 -71 72 0
1 2 24 0
1 7 60 0
1 24 59 0
1 -42 60 0
-1 8 -12 0
-1 -24 -32 0
2 3 24 0
2 3 56 0
2 3 -62 0
2 5 -62 0
-2 -5 -6 0
-2 -5 35 0
-2 -5 74 0
-2 -6 61 0
-2 -65 82 0
3 16 24 0
3 23 27 0
3 -26 28 0
3 -62 69 0
-3 50 89 0
4 5 -78 0
6 -33 -36 0
-6 -19 65 0
-7 -8 -45 0
-7 -42 -60 0
8 42 -83 0
8 -42 -83 0
-8 -19 -46 0
-8 45 -48 0
-8 -48 -64 0
-8 -83 87 0
-9 -40 43 0
10 -27 -33 0
-10 -12 -70 0
-10 -25 -34 0
-10 27 57 0
11 12 34 0
11 27 -28 0
-11 -14 -15 0
-11 -19 80 0
-11 76 -80 0
-12 -63 -78 0
13 67 85 0
13 67 -90 0
13 85 -86 0
13 -86 90 0
-13 -49 90 0
-13 -67 86 0
-13 -85 90 0
-17 22 71 0
18 39 64 0
-18 -19 -38 0
19 -33 -88 0
-19 -24 -26 0
-19 -28 -34 0
-19 36 78 0
-19 40 87 0
-19 -60 83 0
-20 -21 77 0
21 -72 88 0
22 69 88 0
23 75 76 0
23 -75 -76 0
-23 86 -89 0
24 -28 59 0
24 35 -59 0
-24 -25 -59 0
25 30 33 0
25 36 74 0
26 -27 -34 0
-26 31 34 0
-27 34 57 0
-27 -34 -57 0
29 30 73 0
29 30 -73 0
29 -30 73 0
29 -36 -37 0
-31 -73 79 0
-32 56 59 0
33 61 65 0
37 62 63 0
38 53 -54 0
38 70 -72 0
-38 47 -64 0
39 40 48 0
-39 -48 -55 0
-40 70 77 0
41 -53 -72 0
-45 48 -55 0
-46 47 64 0
-46 -47 55 0
-49 51 -68 0
-51 67 68 0
52 62 78 0
58 76 80 0
60 83 -87 0
65 74 76 0
-65 74 -82 0
66 67 -90 0
66 86 90 0
66 -86 -90 0
-66 -68 -86 0
-66 86 90 0
-66 -86 -90 0
-68 -86 -89 0
-19 -23 79 -84 0
36 62 -63 82 0
-46 -47 55 64 0
1 2 0
1 10 0
1 -23 0
1 38 0
1 42 0
1 -56 0
1 59 0
1 -87 0
1 88 0
-1 -2 0
-1 -22 0
-1 33 0
-1 -34 0
-1 -36 0
-1 50 0
-1 83 0
-1 -83 0
-1 90 0
2 6 0
2 -61 0
2 -74 0
-2 -37 0
-2 -65 0
3 39 0
3 -42 0
3 50 0
3 51 0
3 -51 0
3 59 0
3 -67 0
3 -91 0
-3 50 0
-3 -50 0
-3 -51 0
-3 52 0
-3 -68 0
4 -6 0
4 -36 0
4 -53 0
4 59 0
4 61 0
4 67 0
4 78 0
4 -82 0
4 -91 0
-4 -51 0
-4 -78 0
-4 82 0
-4 -84 0
5 -52 0
5 63 0
5 -82 0
5 84 0
-5 52 0
-5 -74 0
6 35 0
6 -37 0
6 -62 0
6 82 0
-6 29 0
-6 52 0
-6 -65 0
7 55 0
-7 -42 0
-7 48 0
-7 70 0
-7 -70 0
8 9 0
8 29 0
8 -46 0
8 -50 0
8 -88 0
-8 -9 0
-8 -20 0
-8 -83 0
9 -43 0
9 45 0
9 -47 0
9 70 0
-9 -45 0
10 -28 0
10 49 0
10 -57 0
10 -60 0
10 -72 0
-10 -11 0
-10 24 0
-10 -83 0
11 14 0
11 15 0
11 -26 0
11 36 0
11 -76 0
11 -80 0
-11 31 0
-11 -57 0
-11 -76 0
12 28 0
12 -79 0
12 -80 0
-12 31 0
-12 49 0
-12 -58 0
-12 73 0
-12 79 0
-12 -79 0
13 -24 0
13 57 0
13 -90 0
-13 -50 0
-13 -91 0
14 -57 0
14 -58 0
14 73 0
14 -79 0
-14 57 0
-14 -74 0
-14 76 0
15 -29 0
15 30 0
15 31 0
15 -57 0
15 -58 0
-15 73 0
-15 80 0
16 49 0
16 50 0
16 -50 0
-16 -89 0
17 40 0
17 -81 0
-17 -23 0
-17 44 0
-17 77 0
18 21 0
18 41 0
18 54 0
-18 -47 0
-18 -54 0
-18 -55 0
-18 -64 0
-18 -69 0
-18 -77 0
19 -36 0
19 41 0
19 -50 0
19 -51 0
19 54 0
19 59 0
19 64 0
19 69 0
19 75 0
19 85 0
19 -91 0
-19 -41 0
-19 -51 0
-19 -53 0
-19 -55 0
-19 71 0
-19 -75 0
-19 -79 0
-19 81 0
-19 86 0
-19 -86 0
20 53 0
20 -72 0
-20 69 0
-20 70 0
-20 72 0
21 -72 0
-21 22 0
-21 -72 0
-21 83 0
-21 -88 0
22 -33 0
22 41 0
22 -44 0
22 53 0
22 54 0
22 -55 0
-22 48 0
-22 -71 0
-22 -88 0
23 -36 0
23 38 0
23 42 0
23 51 0
